language Essence 1.3

letting blksize_delta be
        function(1 --> 10, 2 --> 10, 3 --> 10, 4 --> 10, 5 --> 10, 6 --> 10, 7 --> 10, 8 --> 10, 9 --> 10, 10 --> 10,
                 11 --> 10, 12 --> 10, 13 --> 10, 14 --> 10, 15 --> 10, 16 --> 10, 17 --> 10, 18 --> 10, 19 --> 10,
                 20 --> 10, 21 --> 10, 22 --> 10, 23 --> 10, 24 --> 10, 25 --> 10, 26 --> 10, 27 --> 10, 28 --> 10,
                 29 --> 10, 30 --> 10, 31 --> 10, 32 --> 10, 33 --> 10, 34 --> 10, 35 --> 10, 36 --> 10, 37 --> 10,
                 38 --> 10, 39 --> 10, 40 --> 10, 41 --> 10, 42 --> 10, 43 --> 10, 44 --> 10, 45 --> 10, 46 --> 10,
                 47 --> 10, 48 --> 10, 49 --> 10, 50 --> 10)
letting maxcars be
        function(1 --> 8, 2 --> 8, 3 --> 9, 4 --> 8, 5 --> 8, 6 --> 8, 7 --> 8, 8 --> 8, 9 --> 8, 10 --> 8, 11 --> 8,
                 12 --> 8, 13 --> 8, 14 --> 8, 15 --> 8, 16 --> 8, 17 --> 8, 18 --> 8, 19 --> 8, 20 --> 8, 21 --> 8,
                 22 --> 8, 23 --> 8, 24 --> 8, 25 --> 8, 26 --> 8, 27 --> 8, 28 --> 10, 29 --> 8, 30 --> 8, 31 --> 8,
                 32 --> 8, 33 --> 8, 34 --> 8, 35 --> 8, 36 --> 8, 37 --> 10, 38 --> 9, 39 --> 8, 40 --> 8, 41 --> 8,
                 42 --> 10, 43 --> 8, 44 --> 8, 45 --> 10, 46 --> 8, 47 --> 8, 48 --> 8, 49 --> 8, 50 --> 8)
letting n_cars be 152
letting n_classes be 21
letting n_options be 50
letting quantity be
        function(1 --> 7, 2 --> 7, 3 --> 8, 4 --> 7, 5 --> 7, 6 --> 7, 7 --> 7, 8 --> 7, 9 --> 7, 10 --> 7, 11 --> 7,
                 12 --> 7, 13 --> 7, 14 --> 8, 15 --> 7, 16 --> 7, 17 --> 7, 18 --> 7, 19 --> 8, 20 --> 8, 21 --> 8)
letting usage be
        relation((1, 8), (1, 11), (1, 18), (1, 33), (1, 35), (1, 49), (2, 2), (2, 43), (3, 5), (3, 8), (3, 10), (3, 34),
                 (3, 41), (3, 43), (4, 15), (4, 28), (4, 39), (4, 50), (5, 16), (5, 32), (5, 33), (5, 39), (6, 14),
                 (6, 31), (6, 40), (7, 20), (7, 24), (7, 29), (7, 31), (7, 43), (8, 20), (8, 26), (8, 27), (8, 35),
                 (9, 13), (9, 17), (9, 29), (9, 30), (9, 46), (10, 13), (10, 19), (10, 38), (10, 47), (10, 50), (11, 2),
                 (11, 4), (11, 9), (11, 19), (11, 25), (11, 31), (11, 33), (11, 38), (11, 39), (12, 1), (12, 2),
                 (12, 10), (12, 36), (12, 48), (13, 10), (13, 27), (13, 39), (13, 43), (13, 48), (13, 49), (14, 6),
                 (14, 18), (14, 21), (14, 28), (14, 34), (14, 39), (14, 42), (14, 45), (14, 48), (15, 2), (15, 5),
                 (15, 7), (15, 13), (15, 18), (15, 37), (15, 44), (16, 14), (16, 19), (16, 22), (16, 42), (16, 43),
                 (16, 46), (17, 3), (17, 14), (17, 15), (17, 27), (17, 38), (18, 14), (18, 26), (18, 33), (18, 36),
                 (18, 45), (19, 5), (19, 12), (19, 17), (19, 23), (19, 30), (19, 38), (19, 40), (19, 43), (19, 47),
                 (19, 48), (20, 18), (20, 36), (20, 49), (21, 4), (21, 11), (21, 16), (21, 30), (21, 34), (21, 35),
                 (21, 39), (21, 46), (21, 49))
$ Visualisation for usage
$  1  8
$  1 11
$  1 18
$  1 33
$  1 35
$  1 49
$  2  2
$  2 43
$  3  5
$  3  8
$  3 10
$  3 34
$  3 41
$  3 43
$  4 15
$  4 28
$  4 39
$  4 50
$  5 16
$  5 32
$  5 33
$  5 39
$  6 14
$  6 31
$  6 40
$  7 20
$  7 24
$  7 29
$  7 31
$  7 43
$  8 20
$  8 26
$  8 27
$  8 35
$  9 13
$  9 17
$  9 29
$  9 30
$  9 46
$ 10 13
$ 10 19
$ 10 38
$ 10 47
$ 10 50
$ 11  2
$ 11  4
$ 11  9
$ 11 19
$ 11 25
$ 11 31
$ 11 33
$ 11 38
$ 11 39
$ 12  1
$ 12  2
$ 12 10
$ 12 36
$ 12 48
$ 13 10
$ 13 27
$ 13 39
$ 13 43
$ 13 48
$ 13 49
$ 14  6
$ 14 18
$ 14 21
$ 14 28
$ 14 34
$ 14 39
$ 14 42
$ 14 45
$ 14 48
$ 15  2
$ 15  5
$ 15  7
$ 15 13
$ 15 18
$ 15 37
$ 15 44
$ 16 14
$ 16 19
$ 16 22
$ 16 42
$ 16 43
$ 16 46
$ 17  3
$ 17 14
$ 17 15
$ 17 27
$ 17 38
$ 18 14
$ 18 26
$ 18 33
$ 18 36
$ 18 45
$ 19  5
$ 19 12
$ 19 17
$ 19 23
$ 19 30
$ 19 38
$ 19 40
$ 19 43
$ 19 47
$ 19 48
$ 20 18
$ 20 36
$ 20 49
$ 21  4
$ 21 11
$ 21 16
$ 21 30
$ 21 34
$ 21 35
$ 21 39
$ 21 46
$ 21 49

